09-routing/solutions/XSH-n20-k4-11.opt.sol
Route #1: 7 19 11 4
Route #2: 6 1 10 20 2
Route #3: 8 13 9 17 3
Route #4: 15 14 16 12 18 5
Cost 914
